hash/ascon-hash/program/search_strategies_general_4/search_strategy_16.dzn
search_ann = seq_search([
    int_search(row(sboxes,2), random_order, indomain_min, complete),
    int_search(row(sboxes,1), random_order, indomain_min, complete),
    int_search(row(sboxes,3), random_order, indomain_min, complete),
    int_search(row(sboxes,0), random_order, indomain_min, complete),
    int_search(array1d(prb), occurrence, indomain_min, complete)]);
